\Problem name: 

Minimize
OBJROW: - x_5_7 - x_6_7
Subject To
constr(0):  x_1_2 <= 10
constr(1):  x_1_2 >= 0
constr(2):  x_1_3 <= 8
constr(3):  x_1_3 >= 0
constr(4):  x_1_4 <= 3
constr(5):  x_1_4 >= 0
constr(6):  x_2_3 <= 4
constr(7):  x_2_3 >= 0
constr(8):  x_2_5 <= 4
constr(9):  x_2_5 >= 0
constr(10):  x_3_5 <= 8
constr(11):  x_3_5 >= 0
constr(12):  x_3_6 <= 2
constr(13):  x_3_6 >= 0
constr(14):  x_4_3 <= 3
constr(15):  x_4_3 >= 0
constr(16):  x_4_5 <= 7
constr(17):  x_4_5 >= 0
constr(18):  x_4_6 <= 9
constr(19):  x_4_6 >= 0
constr(20):  x_5_7 <= 10
constr(21):  x_5_7 >= 0
constr(22):  x_6_7 <= 10
constr(23):  x_6_7 >= 0
constr(24):  x_1_2 = 10
constr(25):  x_1_3 = 8
constr(26):  x_1_4 = 3
constr(27):  - x_1_2 + x_2_3 + x_2_5 <= -0
constr(28):  - x_1_3 - x_2_3 + x_3_5 + x_3_6 - x_4_3 <= -0
constr(29):  - x_1_4 + x_4_3 + x_4_5 + x_4_6 <= -0
constr(30):  - x_2_5 - x_3_5 - x_4_5 + x_5_7 <= -0
constr(31):  - x_3_6 - x_4_6 + x_6_7 <= -0
constr(32):  - x_5_7 - x_6_7 <= -0
Bounds
Integers
x_1_2 x_1_3 x_1_4 x_2_3 x_2_5 x_3_5 x_3_6 x_4_3 x_4_5 x_4_6 
x_5_7 x_6_7 
End
